51460
172,202,205,293,363,426,492,578,632,830,905,919,951,969,1190,1227,1285,1361,1400,1437,1453,1457,1570,1783,1938,1991,2071,2157,2373,2395,2465,2592,2612,2744,2775,2791,2896,2955,2981,3032,3043,3216,3278,3588,3742,3795,3894,4020,4194,4237,4274,4369,4527,4767,4777,4874,4964,5042,5096,5120,5223,5274,5287,5361,5476,5496,5550,5603,5651,5866,5871,5944,5945,5947,5983,5990,6003,6107,6230,6314,6350,6376,6405,6648,6679,6884,6890,7040,7068,7088,7111,7114,7117,7150,7276,7287,7293,7554,7621,7674,7707,7878,7915,8020,8118,8238,8298,8301,8472,8557,8628,8629,8633,8687,8816,8862,8953,9028,9039,9049,9094,9272,9383,9623,9801,9804,9893
